NAME : instances/diverse-tsp/instance-12.tsp
COMMENT : No Comment
TYPE : TSP
DIMENSION: 47
EDGE_WEIGHT_TYPE : EUC_2D
NODE_COORD_SECTION
1 1821 1673 
2 22 1171 
3 1102 1518 
4 1134 1091 
5 177 827 
6 1719 1426 
7 360 196 
8 624 1450 
9 462 197 
10 1707 1189 
11 1799 59 
12 1683 7 
13 341 1503 
14 35 841 
15 66 1305 
16 19 416 
17 1884 556 
18 1529 156 
19 372 1584 
20 84 1229 
21 516 1863 
22 395 286 
23 1907 1424 
24 1790 1844 
25 1695 1072 
26 1739 1059 
27 1857 580 
28 1608 106 
29 1150 1291 
30 1615 683 
31 1328 603 
32 1364 427 
33 1909 650 
34 608 62 
35 407 891 
36 40 1807 
37 401 644 
38 754 938 
39 1893 159 
40 1677 345 
41 588 1751 
42 523 321 
43 1106 1340 
44 70 376 
45 1249 1575 
46 1730 1231 
47 1547 1234 
EOF
